Solving original (integer) problem with strategy gdp.hull...
--- Job model.gms Start 02/14/26 18:38:54 52.2.0 d8e408be LEX-LEG x86 64bit/Linux
--- Applying:
    /package/gams/52.2/gmsprmun.txt
--- GAMS Parameters defined
    Input /local/scratch/a/sgusev/repos/k_means/data/gams_gurobi_gdp.hull/no_mode/2026-02-14_18-38-53/original/model.gms
    Output /local/scratch/a/sgusev/repos/k_means/data/gams_gurobi_gdp.hull/no_mode/2026-02-14_18-38-53/original/output.lst
    ScrDir /local/scratch/a/sgusev/repos/k_means/data/gams_gurobi_gdp.hull/no_mode/2026-02-14_18-38-53/original/225a/
    SysDir /package/gams/52.2/
    CurDir /local/scratch/a/sgusev/repos/k_means/data/gams_gurobi_gdp.hull/no_mode/2026-02-14_18-38-53/original/
    LogOption 3
    AppendLog 1
Licensee: David Bernal / SECQUOIA Research Group         G251008+0003Ac-GEN
          Purdue University, Davidson School of Chemical EngineeringDCE4838
          225a/gamslice.dat
          5a82958a-fbca-4a23
          node:66820903 mem:995 cores:48 ipport:50119 v:2                  
          Evaluation license: Not for commercial or production use
          The time-limited license stops working on : Jun 30, 2027
System information: 48 physical cores and 995 Gb physical memory detected
GAMS 52.2.0   Copyright (C) 1987-2025 GAMS Development. All rights reserved
--- Starting compilation
--- model.gms(3709) 2 Mb
--- $echo File /local/scratch/a/sgusev/repos/k_means/data/gams_gurobi_gdp.hull/no_mode/2026-02-14_18-38-53/original/gurobi.opt
--- model.gms(5431) 2 Mb
--- Starting execution: elapsed 0:00:00.019
--- model.gms(3718) 3 Mb
--- Generating MINLP model GAMS_MODEL
--- model.gms(3722) 6 Mb
---   1,125 rows  531 columns  2,729 non-zeroes
---   2,450 nl-code  300 nl-non-zeroes
---   50 discrete-columns
--- Range statistics (absolute non-zero finite values)
--- RHS       [min, max] : [ 7.334E-05, 1.000E+00] - Zero values observed as well
--- Bound     [min, max] : [ 1.000E+00, 8.000E+01] - Zero values observed as well
--- Matrix    [min, max] : [ 5.147E-02, 8.000E+01]
--- model.gms(3722) 4 Mb
--- Executing GUROBI (Solvelink=5): elapsed 0:00:00.026
Reading parameter(s) from "/local/scratch/a/sgusev/repos/k_means/data/gams_gurobi_gdp.hull/no_mode/2026-02-14_18-38-53/original/gurobi.opt"
>>  NonConvex 2
>>  Threads 1
>>  MIPGap 1e-06
>>  MIPGapAbs 1e-10
>>  FeasibilityTol 1e-06
>>  OptimalityTol 1e-06
>>  IntFeasTol 1e-05
Finished reading from "/local/scratch/a/sgusev/repos/k_means/data/gams_gurobi_gdp.hull/no_mode/2026-02-14_18-38-53/original/gurobi.opt"

... GRB_LICENSE_FILE = /local/scratch/a/sgusev/gurobi.lic

    Gurobi           52.2.0 d8e408be Dec 8, 2025           LEG x86 64bit/Linux    

... GAMS/Gurobi Link license.
... GMO Q Extraction (ThreePass): 0.00s

    Gurobi Optimizer version 13.0.0 build v13.0.0rc1 (linux64 - "Oracle Linux Server 9.7")
    
    CPU model: AMD EPYC 7643 48-Core Processor, instruction set [SSE2|AVX|AVX2]
    Thread count: 48 physical cores, 96 logical processors, using up to 1 threads
    
    Non-default parameters:
    TimeLimit  300
    MIPGap  1e-06
    LogToConsole  0
    NonConvex  2
    Threads  1
    
    Optimize a model with 1124 rows, 580 columns and 2468 nonzeros (Min)
    Model fingerprint: 0xcd97a272
    Model has 10 linear objective coefficients
    Model has 50 general nonlinear constraints (500 nonlinear terms)
    Variable types: 530 continuous, 50 integer (0 binary)
    Coefficient statistics:
      Matrix range     [1e+00, 8e+01]
      Objective range  [1e+00, 1e+00]
      Bounds range     [1e+00, 8e+01]
      RHS range        [1e+00, 1e+00]
      NLCon coe range  [7e-05, 1e+00]
    Presolve model has 50 nlconstr
    Added 1050 variables to disaggregate expressions
    Presolve removed 250 rows and 210 columns
    Presolve time: 0.01s
    Presolved: 3274 rows, 1421 columns, 8358 nonzeros
    Presolved model has 500 bilinear constraint(s)
    
    Solving non-convex MIQCP to global optimality
    
    Variable types: 1371 continuous, 50 integer (50 binary)
    Found heuristic solution: objective 11.5812080
    
    Root relaxation: objective 0.000000e+00, 398 iterations, 0.00 seconds (0.00 work units)
    
        Nodes    |    Current Node    |     Objective Bounds      |     Work
     Expl Unexpl |  Obj  Depth IntInf | Incumbent    BestBd   Gap | It/Node Time
    
         0     0    0.00000    0  250   11.58121    0.00000   100%     -    0s
         0     0    0.00000    0  258   11.58121    0.00000   100%     -    0s
         0     0    0.00000    0  205   11.58121    0.00000   100%     -    0s
         0     0    0.00000    0  145   11.58121    0.00000   100%     -    0s
         0     0    0.00000    0  145   11.58121    0.00000   100%     -    0s
         0     0    0.00000    0   94   11.58121    0.00000   100%     -    0s
         0     0    0.00000    0  107   11.58121    0.00000   100%     -    0s
         0     0    0.00000    0  134   11.58121    0.00000   100%     -    0s
         0     0    0.00000    0  146   11.58121    0.00000   100%     -    0s
         0     0    0.00000    0  146   11.58121    0.00000   100%     -    0s
         0     0    0.00000    0   92   11.58121    0.00000   100%     -    0s
         0     0    0.00000    0   75   11.58121    0.00000   100%     -    0s
         0     0    0.00000    0  117   11.58121    0.00000   100%     -    0s
         0     0    0.00000    0  117   11.58121    0.00000   100%     -    0s
         0     0    0.00000    0   70   11.58121    0.00000   100%     -    0s
         0     0    0.00000    0   70   11.58121    0.00000   100%     -    0s
    H    0     0                      10.0119376    0.00000   100%     -    0s
    H    0     0                       9.5210743    0.00000   100%     -    0s
    H    0     0                       9.3558103    0.00000   100%     -    0s
    H    0     0                       7.0762695    0.00000   100%     -    0s
         0     2    0.00000    0   70    7.07627    0.00000   100%     -    0s
    H    1     1                       6.0204454    0.00000   100%   0.0    0s
    H    4     4                       5.2235837    0.00000   100%  22.8    0s
    H   37    37                       5.0377752    0.00000   100%  23.4    0s
    H   56    55                       4.6310031    0.00000   100%  23.1    0s
    H  437   370                       4.6021967    0.00000   100%  14.5    2s
    H  559   459                       4.5202483    0.00000   100%  11.9    3s
    H  559   436                       4.3799002    0.00000   100%  11.9    3s
    H  559   414                       4.3684497    0.00000   100%  11.9    3s
    H  572   401                       4.3684490    0.00000   100%  11.6    4s
    H  573   382                       4.3684490    0.00000   100%  21.0    4s
    H  574   363                       4.3684464    0.00000   100%  21.0    4s
    H  575   345                       4.2912027    0.00000   100%  21.0    4s
    H  576   328                       4.2912027    0.00000   100%  21.0    4s
    H  576   312                       4.2912027    0.00000   100%  21.0    4s
    H  577   297                       4.1975917    0.00000   100%  21.0    4s
    H  586   288                       4.1975917    0.00000   100%  21.4    5s
    H  598   282                       3.7933588    0.00000   100%  21.5    5s
    H  598   268                       3.7300594    0.00000   100%  21.5    5s
    H  610   264                       3.7300386    0.00000   100%  21.8    5s
    H  610   251                       3.7299932    0.00000   100%  21.8    5s
    H  613   242                       3.7299881    0.00000   100%  21.9    5s
    H  613   231                       3.7295347    0.00000   100%  21.9    5s
    H  617   222                       3.7294894    0.00000   100%  22.0    5s
    H  617   212                       3.7294848    0.00000   100%  22.0    5s
    H  617   203                       3.7293866    0.00000   100%  22.0    5s
    H  641   210                       3.7293598    0.00000   100%  21.6    5s
    H  641   201                       3.7293491    0.00000   100%  21.6    5s
    H  848   266                       3.7293491    0.00000   100%  20.5    6s
    H  849   260                       3.7293458    0.00000   100%  20.6    6s
    H 1055   370                       3.7293455    0.00000   100%  21.1    6s
    H 1055   370                       3.7293401    0.00000   100%  21.1    6s
    H 1055   370                       3.7293322    0.00000   100%  21.1    6s
    H 1074   389                       3.7218046    0.00000   100%  21.2    6s
    H 1296   573                       3.7217962    0.00000   100%  19.7    6s
    H 1473   692                       3.7217687    0.00000   100%  18.8    7s
    H 1473   692                       3.7217687    0.00000   100%  18.8    7s
    H 1504   723                       3.7217427    0.00000   100%  18.9    7s
    H 1511   730                       3.7217343    0.00000   100%  19.0    7s
    H 1526   745                       3.7217220    0.00000   100%  19.2    7s
    H 1531   749                       3.6014432    0.00000   100%  19.3    7s
    H 2270  1246                       3.4368406    0.00000   100%  17.1    8s
    H 2270  1242                       3.4257963    0.00000   100%  17.1    8s
    H 2270  1235                       3.3293892    0.00000   100%  17.1    8s
    H 2270  1206                       3.3078934    0.00000   100%  17.1    8s
    H 2270  1192                       3.2673410    0.00000   100%  17.1    8s
    H 2270  1179                       3.2383966    0.00000   100%  17.1    8s
    H 2270  1175                       3.2364354    0.00000   100%  17.1    8s
    H 2270  1175                       3.2364316    0.00000   100%  17.1    8s
    H 2270  1173                       3.2363956    0.00000   100%  17.1    8s
    H 2270  1173                       3.2363487    0.00000   100%  17.1    8s
    H 2270  1134                       3.2211487    0.00000   100%  17.1    8s
    H 2270  1132                       3.2179994    0.00000   100%  17.1    8s
    H 2270  1130                       3.2141246    0.00000   100%  17.1    8s
    H 2270  1130                       3.2141187    0.00000   100%  17.1    8s
    H 2270  1130                       3.2138406    0.00000   100%  17.1    8s
    H 2272  1128                       3.2120054    0.00000   100%  17.1    8s
    H 2457  1167                       3.0604536    0.00000   100%  16.9    9s
    H 2761  1387                       3.0568784    0.00000   100%  16.4    9s
    H 2761  1387                       3.0547177    0.00000   100%  16.4    9s
    H 2761  1387                       3.0527033    0.00000   100%  16.4    9s
    H 2761  1379                       3.0376378    0.00000   100%  16.4    9s
    H 2761  1379                       3.0291665    0.00000   100%  16.4    9s
    H 2761  1379                       3.0288288    0.00000   100%  16.4    9s
    H 2939  1484                       2.9867513    0.00000   100%  16.4    9s
    H 2939  1465                       2.9372388    0.00000   100%  16.4    9s
    H 2939  1440                       2.8361192    0.00000   100%  16.4    9s
    H 2939  1428                       2.7978967    0.00000   100%  16.4    9s
    H 2939  1416                       2.7563730    0.00000   100%  16.4    9s
    H 2939  1416                       2.7563580    0.00000   100%  16.4    9s
    H 2939  1416                       2.7556502    0.00000   100%  16.4    9s
    H 2939  1403                       2.7541870    0.00000   100%  16.4    9s
    H 2939  1403                       2.7523403    0.00000   100%  16.4    9s
      2959  1414    2.58015   48   50    2.75234    0.00000   100%  16.5   10s
    H 2994  1288                       2.5196997    0.00000   100%  16.5   10s
    H 2994  1279                       2.4997574    0.00000   100%  16.5   10s
    H 3082  1282                       2.4335809    0.00000   100%  16.2   10s
    H 3082  1282                       2.4335809    0.00000   100%  16.2   10s
    H 3112  1304                       2.4335760    0.00000   100%  16.4   10s
    H 3148  1304                       2.4335758    0.00000   100%  16.2   10s
    H 3148  1304                       2.4335758    0.00000   100%  16.2   10s
    H 3148  1289                       2.4212938    0.00000   100%  16.2   10s
    H 3148  1282                       2.4055465    0.00000   100%  16.2   10s
    H 3148  1282                       2.3986541    0.00000   100%  16.2   10s
    H 3449  1414                       2.3986021    0.00000   100%  15.9   10s
    H 3587  1447                       2.3986005    0.00000   100%  16.0   10s
    H 3587  1447                       2.3985717    0.00000   100%  16.0   10s
    H 3750  1505                       2.3985694    0.00000   100%  16.3   11s
    H 3757  1510                       2.3985668    0.00000   100%  16.3   11s
    H 3757  1510                       2.3985658    0.00000   100%  16.3   11s
    H 4683  1820                       2.3985655    0.00000   100%  16.9   13s
    H 4778  1850                       2.3985655    0.00000   100%  17.1   13s
      5156  2005    0.00000   49   82    2.39857    0.00000   100%  18.7   15s
    H 5585  2088                       2.3985635    0.00000   100%  18.7   15s
      7949  2398 infeasible   65         2.39856    0.00000   100%  19.2   20s
     10995  2644    2.03108   59   63    2.39856    0.00000   100%  18.8   25s
    H11004  2641                       2.3985503    0.00000   100%  18.8   25s
    H11908  2927                       2.3985496    0.00001   100%  18.9   26s
    H11908  2927                       2.3985487    0.00001   100%  18.9   26s
    H11908  2927                       2.3985485    0.00001   100%  18.9   26s
    H12014  2956                       2.3985485    0.00001   100%  19.0   26s
    H13015  3220                       2.3985485    0.00125   100%  19.3   28s
     13964  3441    1.29822   53   75    2.39855    0.01083   100%  19.7   30s
    H14433  3584                       2.3985482    0.01784  99.3%  20.0   30s
    H14433  3584                       2.3985481    0.01784  99.3%  20.0   30s
    H15434  3856                       2.3985478    0.05786  97.6%  20.1   32s
     17406  4311    1.29844   59   64    2.39855    0.21409  91.1%  20.4   35s
    H18919  4665                       2.3233121    0.25008  89.2%  20.3   36s
    H18919  4543                       2.2345393    0.25008  88.8%  20.3   36s
    H18943  4514                       2.2312099    0.25008  88.8%  20.3   36s
     21419  5234    0.32143   46   78    2.23121    0.32143  85.6%  19.8   40s
     25606  5857    1.60370   70   44    2.23121    0.42845  80.8%  20.0   45s
     29872  6619    1.69412   53   58    2.23121    0.56611  74.6%  20.0   50s
    H32693  6236                       2.0760372    0.65910  68.3%  20.2   53s
    H32693  5832                       1.9673805    0.65910  66.5%  20.2   53s
    H33693  6041                       1.9663204    0.69561  64.6%  20.1   54s
     33704  6037    0.73337   51   88    1.96632    0.69670  64.6%  20.1   55s
     37915  6180    0.83421   45   73    1.96632    0.83386  57.6%  20.3   60s
     42010  6241    1.30192   60   60    1.96632    0.95915  51.2%  20.4   65s
     45939  6179    1.24938   45   63    1.96632    1.08527  44.8%  20.4   70s
     49869  5535    1.20205   54   64    1.96632    1.20205  38.9%  20.7   75s
     53736  4759     cutoff   56         1.96632    1.32238  32.7%  20.9   80s
    H57691  4516                       1.9658874    1.43691  26.9%  20.5   85s
    H57802  4504                       1.9658585    1.43928  26.8%  20.4   85s
    H58135  4437                       1.9656836    1.44722  26.4%  20.4   85s
    H58135  4432                       1.9653337    1.44722  26.4%  20.4   85s
    H58415  4442                       1.9653337    1.45094  26.2%  20.3   86s
    H58415  4438                       1.9649931    1.45094  26.2%  20.3   86s
     61434  4656    1.84465   84   31    1.96499    1.52996  22.1%  19.8   90s
     65146  6340    1.96417  140   19    1.96499    1.57117  20.0%  19.0   95s
     68976  7831    1.96089  109   32    1.96499    1.61463  17.8%  18.2  100s
     74486 10161    1.77406   90   27    1.96499    1.64081  16.5%  17.1  105s
     80241 12727     cutoff   99         1.96499    1.65796  15.6%  16.1  110s
     85861 14850    1.94102  105   29    1.96499    1.67364  14.8%  15.2  115s
    H88028 15683                       1.9649842    1.68081  14.5%  14.9  117s
    H88086 15695                       1.9649839    1.68110  14.4%  14.9  117s
    H88086 15691                       1.9649824    1.68110  14.4%  14.9  117s
    H88086 15691                       1.9649824    1.68110  14.4%  14.9  117s
    H88878 15887                       1.9649803    1.68445  14.3%  14.8  118s
    H88878 15887                       1.9649803    1.68445  14.3%  14.8  118s
     90675 16246    1.94887  103   30    1.96498    1.68902  14.0%  14.6  120s
    H93179 17484                       1.9649784    1.69334  13.8%  14.3  122s
     95926 18517    1.93686  162   27    1.96498    1.69775  13.6%  14.0  125s
    *99156 19953             224       1.9649650    1.70132  13.4%  13.6  128s
     101158 20387    1.89409   96   32    1.96497    1.70572  13.2%  13.4  130s
     106479 22352    1.89598  112   29    1.96497    1.71331  12.8%  12.9  135s
     111695 24348    1.81820  113   30    1.96497    1.72038  12.4%  12.4  140s
     117117 26364    1.86434  109   25    1.96497    1.72659  12.1%  12.0  145s
     122421 28051    1.95118  129   28    1.96497    1.73365  11.8%  11.6  150s
     127901 29926    1.91390  130   34    1.96497    1.73993  11.5%  11.2  155s
     133263 31770     cutoff  107         1.96497    1.74473  11.2%  10.9  160s
     138509 33469 infeasible   95         1.96497    1.74839  11.0%  10.6  165s
     143601 34783    1.92532  112   28    1.96497    1.75348  10.8%  10.3  170s
     148737 36314 infeasible  116         1.96497    1.75702  10.6%  10.1  175s
     153640 37879    1.80732   91   31    1.96497    1.76017  10.4%   9.9  180s
     159011 39300    1.95861   77   29    1.96497    1.76388  10.2%   9.6  185s
     164216 41057     cutoff   97         1.96497    1.76648  10.1%   9.4  190s
     169397 42762    1.92796  102   29    1.96497    1.76939  10.0%   9.2  195s
     174401 44540    1.90103  104   30    1.96497    1.77145  9.85%   9.0  200s
     179754 46439     cutoff  106         1.96497    1.77367  9.74%   8.9  205s
     184981 48180    1.82805   98   30    1.96497    1.77569  9.63%   8.7  210s
     190138 49945    1.95147  115   24    1.96497    1.77755  9.54%   8.5  215s
     195488 51749     cutoff  104         1.96497    1.77913  9.46%   8.4  220s
     200779 53330    1.94069  106   27    1.96497    1.78111  9.36%   8.2  225s
     206122 55235    1.82512   93   30    1.96497    1.78269  9.28%   8.1  230s
     211401 56832     cutoff   98         1.96497    1.78444  9.19%   8.0  235s
     216945 58839    1.95894  107   27    1.96497    1.78611  9.10%   7.8  240s
     222290 60178    1.85582   92   28    1.96497    1.78822  8.99%   7.7  245s
     227550 61754    1.88003  119   34    1.96497    1.78986  8.91%   7.6  250s
     233100 63734    1.96086  145   20    1.96497    1.79109  8.85%   7.4  255s
     238465 65605    1.95236  116   33    1.96497    1.79231  8.79%   7.3  260s
     243571 67169    1.96211  116   22    1.96497    1.79336  8.73%   7.2  265s
     249042 69113    1.94987  120   28    1.96497    1.79440  8.68%   7.1  270s
     254312 70797    1.94324  142   25    1.96497    1.79545  8.63%   7.0  275s
     259848 72921    1.95845  112   18    1.96497    1.79667  8.56%   6.9  280s
     264943 74298    1.96203  113   17    1.96497    1.79783  8.51%   6.8  285s
     270358 75965    1.86336   80   36    1.96497    1.79932  8.43%   6.7  290s
     275641 77180    1.96142  112   25    1.96497    1.80077  8.36%   6.6  295s
    
    Cutting planes:
      Learned: 89
      Gomory: 1
      Implied bound: 10
      MIR: 4
      Flow cover: 45
      Inf proof: 1
      RLT: 18
      Relax-and-lift: 4
    
    Explored 280870 nodes (1838261 simplex iterations) in 300.00 seconds (222.74 work units)
    Thread count was 1 (of 96 available processors)
    
    Solution count 10: 1.96497 1.96497 1.96498 ... 1.96568
    
    Time limit reached
    Warning: max constraint violation (2.5807e-06) exceeds tolerance
    Warning: max general constraint violation (2.5807e-06) exceeds tolerance
    Best objective 1.964965018898e+00, best bound 1.801863071067e+00, gap 8.3005%
    
    User-callback calls 280998, time in user-callback 0.02 sec

--- Reading solution for model GAMS_MODEL
***
*** Solver did not provide marginals for model GAMS_MODEL
***
--- Executing after solve: elapsed 0:05:00.112
--- model.gms(3725) 4 Mb
--- model.gms(5431) 6 Mb
--- Putfile results /local/scratch/a/sgusev/repos/k_means/data/gams_gurobi_gdp.hull/no_mode/2026-02-14_18-38-53/original/results.dat
--- Putfile statresults /local/scratch/a/sgusev/repos/k_means/data/gams_gurobi_gdp.hull/no_mode/2026-02-14_18-38-53/original/resultsstat.dat
*** Status: Normal completion
--- Job model.gms Stop 02/14/26 18:43:54 elapsed 0:05:00.116
Original problem solved. Time taken: 300.7161030769348 seconds
Original objective value: 1.96496501889782
